proyfinal/src/viki/013/andrea/andrea-localstore/experimentInOfficeAgust.take6/worker_5/80cbb53f-6f62-474b-864f-0deed777de12.als.cnf.out
Reading from standard input... Use '--help' for help.
============================[ Problem Statistics ]=============================
|                                                                             |
|  Number of variables:         87638                                         |
|  Number of clauses:          161767                                         |
|  Parse time:                   0.03 s                                       |
|                                                                             |
============================[ Search Statistics ]==============================
| Conflicts |          ORIGINAL         |          LEARNT          | Progress |
|           |    Vars  Clauses Literals |    Limit  Clauses Lit/Cl |          |
===============================================================================
|       100 |   63885   110615   276227 |    40558      100     99 | 27.104 % |
|       250 |   63885   110615   276227 |    44614      250     79 | 27.104 % |
|       475 |   63885   110615   276227 |    49076      475     64 | 27.104 % |
|       812 |   63884   110571   276137 |    53983      811     55 | 27.105 % |
|      1318 |   63884   110571   276137 |    59382     1317     77 | 27.105 % |
|      2077 |   63884   110571   276137 |    65320     2076     98 | 27.105 % |
|      3216 |   63860   110471   275908 |    71852     3214    100 | 27.132 % |
|      4924 |   63832   110355   275643 |    79037     4921     99 | 27.164 % |
|      7486 |   63832   110355   275643 |    86941     7483    115 | 27.164 % |
|     11330 |   63832   110355   275643 |    95635    11327    116 | 27.164 % |
|     17096 |   63814   110281   275472 |   105199    17092    110 | 27.185 % |
===============================================================================
restarts              : 63
conflicts             : 17368          (6914 /sec)
decisions             : 64769          (0.00 % random) (25783 /sec)
propagations          : 21233758       (8452542 /sec)
conflict literals     : 1892209        (49.90 % deleted)
Memory used           : 40.64 MB
CPU time              : 2.51212 s

INDETERMINATE
